/*********************************************
 * OPL 20.1.0.0 Data
 * Author: Chaitanya
 * Creation Date: 02-Mar-2022 at 2:53:36 pm
 *********************************************/
size = 5;
cost = [[0,7,12,25,65]
        [7,0,22,25,75]
        [12,22,0,17,28]
        [25,25,17,0,15]
        [65,75,28,15,0]];
        
supply=[49,46,34,34,34];
demand=[34,34,41,52,43];

